
Gurobi 7.0.2 (win64) logging started 01/15/18 19:06:14

Optimize a model with 501 rows, 1290 columns and 2580 nonzeros
Coefficient statistics:
  Matrix range     [1e+00, 1e+00]
  Objective range  [9e-02, 1e+03]
  Bounds range     [0e+00, 0e+00]
  RHS range        [1e+00, 1e+00]
Presolve removed 110 rows and 207 columns
Presolve time: 0.00s
Presolved: 391 rows, 1083 columns, 2166 nonzeros

Iteration    Objective       Primal Inf.    Dual Inf.      Time
       0   -0.0000000e+00   2.000000e+00   0.000000e+00      0s
     137   -1.3503000e+03   0.000000e+00   0.000000e+00      0s

Solved in 137 iterations and 0.01 seconds
Optimal objective -1.350300000e+03
